c generated by sgen
p cnf 89 188
-2 -3 -4 0
-1 -3 -4 0
-1 -2 -4 0
-1 -2 -3 0
-6 -7 -8 0
-5 -7 -8 0
-5 -6 -8 0
-5 -6 -7 0
-10 -11 -12 0
-9 -11 -12 0
-9 -10 -12 0
-9 -10 -11 0
-14 -15 -16 0
-13 -15 -16 0
-13 -14 -16 0
-13 -14 -15 0
-18 -19 -20 0
-17 -19 -20 0
-17 -18 -20 0
-17 -18 -19 0
-22 -23 -24 0
-21 -23 -24 0
-21 -22 -24 0
-21 -22 -23 0
-26 -27 -28 0
-25 -27 -28 0
-25 -26 -28 0
-25 -26 -27 0
-30 -31 -32 0
-29 -31 -32 0
-29 -30 -32 0
-29 -30 -31 0
-34 -35 -36 0
-33 -35 -36 0
-33 -34 -36 0
-33 -34 -35 0
-38 -39 -40 0
-37 -39 -40 0
-37 -38 -40 0
-37 -38 -39 0
-42 -43 -44 0
-41 -43 -44 0
-41 -42 -44 0
-41 -42 -43 0
-46 -47 -48 0
-45 -47 -48 0
-45 -46 -48 0
-45 -46 -47 0
-50 -51 -52 0
-49 -51 -52 0
-49 -50 -52 0
-49 -50 -51 0
-54 -55 -56 0
-53 -55 -56 0
-53 -54 -56 0
-53 -54 -55 0
-58 -59 -60 0
-57 -59 -60 0
-57 -58 -60 0
-57 -58 -59 0
-62 -63 -64 0
-61 -63 -64 0
-61 -62 -64 0
-61 -62 -63 0
-66 -67 -68 0
-65 -67 -68 0
-65 -66 -68 0
-65 -66 -67 0
-70 -71 -72 0
-69 -71 -72 0
-69 -70 -72 0
-69 -70 -71 0
-74 -75 -76 0
-73 -75 -76 0
-73 -74 -76 0
-73 -74 -75 0
-78 -79 -80 0
-77 -79 -80 0
-77 -78 -80 0
-77 -78 -79 0
-82 -83 -84 0
-81 -83 -84 0
-81 -82 -84 0
-81 -82 -83 0
-85 -86 -87 0
-85 -86 -88 0
-85 -86 -89 0
-85 -87 -88 0
-85 -87 -89 0
-85 -88 -89 0
-86 -87 -88 0
-86 -87 -89 0
-86 -88 -89 0
-87 -88 -89 0
69 61 84 0
8 61 84 0
8 69 84 0
8 69 61 0
71 3 18 0
35 3 18 0
35 71 18 0
35 71 3 0
16 31 63 0
33 31 63 0
33 16 63 0
33 16 31 0
32 85 60 0
72 85 60 0
72 32 60 0
72 32 85 0
87 12 25 0
15 12 25 0
15 87 25 0
15 87 12 0
21 4 82 0
30 4 82 0
30 21 82 0
30 21 4 0
46 41 23 0
13 41 23 0
13 46 23 0
13 46 41 0
58 48 64 0
75 48 64 0
75 58 64 0
75 58 48 0
47 53 67 0
50 53 67 0
50 47 67 0
50 47 53 0
10 5 45 0
17 5 45 0
17 10 45 0
17 10 5 0
42 1 62 0
28 1 62 0
28 42 62 0
28 42 1 0
6 40 26 0
51 40 26 0
51 6 26 0
51 6 40 0
9 29 76 0
56 29 76 0
56 9 76 0
56 9 29 0
54 77 27 0
36 77 27 0
36 54 27 0
36 54 77 0
89 24 7 0
79 24 7 0
79 89 7 0
79 89 24 0
70 52 44 0
74 52 44 0
74 70 44 0
74 70 52 0
73 39 19 0
78 39 19 0
78 73 19 0
78 73 39 0
68 11 38 0
22 11 38 0
22 68 38 0
22 68 11 0
2 37 86 0
55 37 86 0
55 2 86 0
55 2 37 0
66 20 83 0
88 20 83 0
88 66 83 0
88 66 20 0
43 59 34 0
65 59 34 0
65 43 34 0
65 43 59 0
49 81 57 0
49 81 80 0
49 81 14 0
49 57 80 0
49 57 14 0
49 80 14 0
81 57 80 0
81 57 14 0
81 80 14 0
57 80 14 0
